c User generated cnf file
p cnf 12 41
-3 10 5 0 
-6 1 12 0 
6 2 -6 0 
6 -7 8 0 
11 -8 12 0 
-11 3 11 0 
-9 4 8 0 
3 -1 4 0 
1 3 -8 0 
11 -7 10 0 
-2 10 10 0 
12 -1 6 0 
-3 5 3 0 
-9 12 4 0 
3 -11 12 0 
-3 1 8 0 
8 1 -8 0 
-2 5 5 0 
-12 12 10 0 
11 11 -2 0 
8 -8 9 0 
10 -5 9 0 
3 -5 5 0 
3 11 -2 0 
-2 8 3 0 
-5 3 5 0 
1 9 -10 0 
-1 10 4 0 
11 -5 7 0 
2 12 -6 0 
-11 1 10 0 
2 -5 9 0 
-8 6 8 0 
-8 6 9 0 
7 12 -6 0 
3 -5 2 0 
-6 10 9 0 
4 12 -5 0 
12 9 -8 0 
-2 7 9 0 
5 4 -7 0 
